p cnf 34 96
a 16 0
e 1 2 3 4 5 6 7 8 9 10 11 12 13 14 15 17 18 19 20 21 22 23 24 25 26 27 28 29 30 31 32 33 34 0
2 1 0
2 1 0
-1 -2 0
-3 4 -5 0
3 -4 -5 0
-3 -4 5 0
3 4 5 0
-6 -1 0
-6 -5 0
1 5 6 0
-9 7 0
-9 -8 0
-7 8 9 0
6 9 -10 0
-6 -9 -10 0
6 -9 10 0
-6 9 10 0
11 -4 0
11 -8 0
4 8 -11 0
13 -12 0
13 -3 0
12 3 -13 0
-14 11 0
-14 13 0
-11 -13 14 0
3 -7 -15 0
-3 7 -15 0
3 7 15 0
-3 -7 15 0
16 -5 -17 0
-16 5 -17 0
16 5 17 0
-16 -5 17 0
18 15 0
18 -17 0
-15 17 -18 0
-19 -14 0
-19 -18 0
14 18 19 0
-20 10 0
-20 -19 0
-10 19 20 0
21 2 0
21 20 0
-2 -20 -21 0
-22 -16 0
-22 7 0
16 -7 22 0
24 23 0
24 -22 0
-23 22 -24 0
25 8 0
25 23 0
-8 -23 -25 0
-26 8 0
-26 25 0
-8 -25 26 0
-26 25 -27 0
26 -25 -27 0
-26 -25 27 0
26 25 27 0
-24 -27 -28 0
24 27 -28 0
-24 27 28 0
24 -27 28 0
-29 -22 0
-29 28 0
22 -28 29 0
30 5 0
30 -22 0
-5 22 -30 0
29 -30 -31 0
-29 30 -31 0
29 30 31 0
-29 -30 31 0
1 24 -32 0
-1 -24 -32 0
1 -24 32 0
-1 24 32 0
33 31 0
33 -32 0
-31 32 -33 0
-34 -21 0
-34 -33 0
21 33 34 0
-17 31 -30 0
-21 -10 -25 29 0
-22 13 17 -28 -16 10 0
-12 30 31 -34 -20 -17 0
14 -34 29 33 0
-14 27 -8 25 -24 9 -6 29 0
-34 13 -32 -11 -4 -15 29 0
-34 -2 26 30 13 20 0
-5 3 33 8 0
34 0
